000 000 000 000 000 000 000 000 -99 -99 -99 -99 -99 000 000 -99 000 000 000 001 000 002 001 000 000 000 000 000 000 -99 -99
000 000 000 000 000 000 000 000 000 -99 -99 -99 -99 000 000 000 -99 000 000 003 001 003 001 001 000 000 000 000 000 -99 -99
000 000 000 000 000 000 000 000 000 000 000 000 -99 -99 000 000 000 000 001 001 001 002 001 001 000 000 000 000 000 -99 -99
000 000 000 000 000 000 000 002 000 000 000 000 000 -99 000 001 000 000 001 001 000 000 000 000 000 000 000 000 000 -99 -99
000 000 000 000 000 000 000 002 002 000 000 000 000 000 -99 000 002 000 000 001 000 000 000 000 000 001 001 001 000 -99 000
000 000 000 000 000 000 000 000 001 002 001 000 000 000 -99 000 001 000 -99 000 000 000 000 000 000 003 002 001 003 002 001
002 000 000 000 000 000 000 000 000 001 000 000 000 000 000 000 000 000 -99 000 000 000 000 000 001 004 007 002 004 006 011
002 000 000 000 000 000 000 000 000 000 000 000 000 000 -99 000 000 000 -99 000 000 000 001 002 003 006 009 -99 010 014 007
006 000 000 000 000 000 001 001 000 000 000 000 000 -99 -99 -99 000 000 -99 000 000 001 002 004 010 009 006 007 012 014 008
002 000 000 000 000 000 001 001 001 000 000 000 -99 -99 -99 000 -99 -99 -99 000 000 000 002 005 012 012 007 006 008 019 005
002 000 000 000 000 002 002 002 001 001 000 000 000 -99 000 000 000 000 000 000 000 000 003 006 010 009 006 006 010 015 006
000 001 000 000 000 001 002 007 002 003 001 000 000 000 000 000 000 000 000 000 000 000 007 013 016 021 029 026 017 012 007
000 001 001 000 000 000 001 005 001 003 001 001 000 -99 -99 000 000 -99 000 000 000 000 006 013 018 021 022 022 019 011 009
002 001 003 001 000 000 000 001 002 001 001 001 000 000 000 -99 000 -99 000 000 000 000 002 005 012 019 014 012 012 012 010
002 002 002 001 000 000 000 000 000 000 001 001 000 000 000 -99 -99 -99 000 000 000 000 002 001 002 008 010 007 005 012 006
002 002 001 000 000 000 000 000 000 000 001 000 000 000 000 000 -99 000 000 -99 -99 000 -99 000 000 002 003 004 001 004 003
003 003 002 001 000 -99 000 000 000 000 000 001 000 000 000 000 -99 000 000 000 -99 -99 000 000 000 000 000 001 001 000 001
001 004 002 004 001 -99 000 000 000 000 000 000 000 000 -99 -99 000 000 000 -99 -99 000 000 -99 000 000 000 001 001 000 001
000 001 001 002 000 -99 000 000 000 000 000 000 000 -99 -99 -99 000 000 000 -99 -99 000 000 -99 -99 -99 -99 -99 -99 000 000
000 000 001 000 000 -99 000 000 000 000 000 000 000 -99 -99 -99 000 000 -99 -99 -99 000 000 -99 -99 -99 -99 -99 -99 -99 -99
000 000 000 000 000 000 -99 000 000 000 000 -99 -99 -99 000 000 000 000 -99 000 000 000 000 -99 -99 -99 -99 -99 -99 -99 -99
000 000 000 000 000 000 -99 000 000 000 -99 -99 -99 -99 000 000 000 000 -99 000 000 000 000 -99 -99 -99 -99 -99 -99 -99 -99
000 000 000 000 000 000 -99 000 000 000 -99 -99 -99 000 000 000 000 000 000 000 000 000 000 -99 -99 -99 -99 -99 -99 -99 -99
000 000 000 000 000 000 -99 000 000 -99 -99 -99 000 000 000 000 000 000 000 000 000 000 000 -99 -99 -99 -99 -99 -99 -99 -99
000 000 000 000 000 000 000 000 000 -99 -99 -99 000 000 000 000 000 000 000 000 000 000 000 -99 -99 -99 -99 -99 -99 -99 -99
000 000 000 000 000 000 000 000 000 000 -99 -99 000 000 000 000 000 000 000 000 000 -99 -99 -99 -99 -99 -99 -99 -99 -99 -99
000 000 000 000 000 000 000 000 000 000 000 -99 000 000 000 000 000 000 000 000 000 000 001 -99 -99 -99 -99 -99 -99 -99 -99
000 000 000 000 000 000 000 000 000 000 -99 -99 -99 -99 000 000 000 000 000 -99 000 000 001 -99 -99 -99 -99 -99 -99 -99 -99
000 000 000 000 000 000 000 000 000 000 -99 -99 -99 000 000 000 000 000 000 000 000 000 -99 -99 -99 -99 -99 -99 -99 -99 -99
000 000 000 000 000 000 000 000 000 000 -99 -99 -99 000 000 000 000 000 000 000 000 000 -99 -99 -99 -99 -99 -99 -99 -99 -99
000 000 000 000 000 000 000 000 000 000 -99 -99 000 000 000 -99 -99 000 000 000 000 000 -99 -99 -99 -99 -99 -99 -99 -99 -99
000 000 000 000 000 -99 000 000 000 000 -99 -99 -99 000 000 -99 -99 000 000 -99 000 000 -99 000 000 -99 -99 -99 -99 -99 000
000 000 000 000 000 000 -99 000 000 000 -99 -99 -99 -99 -99 -99 -99 000 000 -99 -99 000 -99 000 000 -99 -99 000 000 000 000
000 000 000 000 000 000 000 000 000 000 -99 -99 -99 000 000 -99 000 000 000 -99 -99 000 -99 000 000 000 000 000 000 000 000
000 000 000 000 000 000 000 000 000 000 -99 -99 000 000 000 -99 000 -99 -99 000 000 -99 000 000 000 000 000 000 000 000 000
000 000 000 000 000 000 000 000 000 -99 -99 -99 000 000 000 000 000 -99 000 000 000 000 000 000 000 -99 000 000 000 000 000
-99 000 000 000 000 000 000 000 000 000 -99 -99 000 000 000 000 000 000 000 000 000 000 000 000 000 -99 000 000 000 000 000
-99 000 000 000 000 000 000 000 000 000 -99 -99 000 000 000 000 000 000 000 -99 000 000 -99 000 000 000 000 000 000 000 000
-99 000 000 000 000 000 000 -99 000 000 000 -99 -99 000 000 000 000 000 -99 -99 000 000 000 000 000 000 000 -99 000 000 -99
000 -99 -99 -99 000 000 000 000 000 000 000 -99 000 000 000 000 000 000 -99 -99 000 000 -99 000 000 000 -99 -99 000 000 000
-99 -99 000 000 000 000 000 000 000 000 -99 -99 000 000 000 000 000 -99 000 000 000 000 000 000 000 000 -99 -99 -99 000 000
-99 000 000 000 000 000 000 000 000 000 -99 -99 000 000 000 000 000 -99 000 000 000 000 000 000 000 -99 -99 -99 -99 000 000
000 000 000 000 000 -99 -99 000 -99 000 000 000 000 000 000 000 000 -99 000 000 000 000 000 000 000 000 -99 -99 -99 -99 000
000 000 000 000 000 000 -99 -99 -99 -99 000 000 000 000 000 000 -99 000 000 000 000 000 000 000 000 000 -99 000 000 -99 -99
000 000 000 000 000 000 -99 -99 -99 000 000 000 000 000 000 000 000 000 000 000 000 000 -99 000 000 -99 000 000 000 -99 -99
000 000 000 000 000 -99 000 -99 000 000 000 000 000 000 000 000 000 000 000 000 000 -99 000 000 000 000 000 000 -99 -99 000
000 000 000 000 -99 -99 -99 -99 000 000 000 000 000 000 000 000 000 000 000 000 000 000 000 000 000 000 000 -99 -99 -99 -99
000 000 000 000 -99 -99 -99 000 000 000 000 000 000 000 000 000 000 000 000 000 000 -99 000 000 000 000 -99 -99 000 -99 -99
000 000 000 -99 -99 -99 -99 -99 000 000 000 000 000 000 000 000 000 000 000 000 000 -99 000 000 000 000 -99 000 000 -99 -99
000 000 -99 -99 -99 -99 -99 -99 -99 -99 000 000 000 000 000 000 000 000 000 000 000 -99 -99 000 000 000 000 000 000 -99 -99
000 000 -99 -99 -99 -99 -99 -99 000 000 000 000 000 000 000 000 000 000 000 000 000 -99 -99 -99 000 000 000 000 000 -99 -99
000 000 000 -99 -99 -99 -99 -99 000 000 000 000 000 000 000 000 000 000 000 000 000 -99 -99 -99 000 000 000 000 000 -99 -99
000 000 -99 -99 -99 -99 -99 000 000 000 000 000 000 000 000 000 000 000 000 000 -99 -99 -99 -99 000 000 000 000 000 -99 -99
-99 000 -99 -99 -99 -99 -99 000 000 000 000 000 000 000 000 -99 000 000 000 -99 -99 -99 -99 -99 000 000 000 000 000 -99 -99
-99 -99 -99 -99 -99 -99 000 000 000 000 000 000 000 000 -99 000 000 000 000 -99 -99 -99 -99 000 000 000 000 000 000 -99 -99
